(set-info :original "/tmp/sea-eoQQS9/nec11_false-unreach-call_false-termination.pp.ms.o.bc")
(set-info :authors "SeaHorn v.0.1.0-rc3")
(declare-rel verifier.error (Bool Bool Bool ))
(declare-rel main@entry (Int ))
(declare-rel main@_bb (Int Bool ))
(declare-rel main@verifier.error.split ())
(declare-var main@%_4_0 Bool )
(declare-var main@%len.0.op.i_0 Int )
(declare-var main@%_9_0 Bool )
(declare-var main@%_6_0 Bool )
(declare-var main@%_8_0 Bool )
(declare-var main@%_0_0 Int )
(declare-var @__VERIFIER_nondet_bool_0 Int )
(declare-var main@entry_0 Bool )
(declare-var main@%_1_0 Bool )
(declare-var main@_bb_0 Bool )
(declare-var main@%len.0.i_0 Int )
(declare-var main@%len.0.i_1 Int )
(declare-var main@_bb1_0 Bool )
(declare-var main@%_5_0 Int )
(declare-var main@_bb_1 Bool )
(declare-var main@%len.0.i_2 Int )
(declare-var main@orig.main.exit_0 Bool )
(declare-var main@%_7_0 Int )
(declare-var main@precall_0 Bool )
(declare-var main@__VERIFIER_assert_0 Bool )
(declare-var main@_bb2_0 Bool )
(declare-var main@verifier.error_0 Bool )
(declare-var main@verifier.error.split_0 Bool )
(rule (verifier.error false false false))
(rule (verifier.error false true true))
(rule (verifier.error true false true))
(rule (verifier.error true true true))
(rule (main@entry @__VERIFIER_nondet_bool_0))
(rule (=> (and (main@entry @__VERIFIER_nondet_bool_0)
         true
         (= main@%_0_0 @__VERIFIER_nondet_bool_0)
         (=> main@_bb_0 (and main@_bb_0 main@entry_0))
         main@_bb_0
         (=> (and main@_bb_0 main@entry_0) (= main@%len.0.i_0 0))
         (=> (and main@_bb_0 main@entry_0) (= main@%len.0.i_1 main@%len.0.i_0)))
    (main@_bb main@%len.0.i_1 main@%_1_0)))
(rule (let ((a!1 (and (main@_bb main@%len.0.i_0 main@%_1_0)
                true
                (=> main@_bb1_0 (and main@_bb1_0 main@_bb_0))
                (=> (and main@_bb1_0 main@_bb_0) main@%_1_0)
                (=> main@_bb1_0 (= main@%_4_0 (= main@%len.0.i_0 4)))
                (=> main@_bb1_0 (= main@%len.0.op.i_0 (+ main@%len.0.i_0 1)))
                (=> main@_bb1_0
                    (= main@%_5_0 (ite main@%_4_0 1 main@%len.0.op.i_0)))
                (=> main@_bb_1 (and main@_bb_1 main@_bb1_0))
                main@_bb_1
                (=> (and main@_bb_1 main@_bb1_0) (= main@%len.0.i_1 main@%_5_0))
                (=> (and main@_bb_1 main@_bb1_0)
                    (= main@%len.0.i_2 main@%len.0.i_1)))))
  (=> a!1 (main@_bb main@%len.0.i_2 main@%_1_0))))
(rule (let ((a!1 (and (main@_bb main@%len.0.i_0 main@%_1_0)
                true
                (=> main@orig.main.exit_0
                    (and main@orig.main.exit_0 main@_bb_0))
                (=> (and main@orig.main.exit_0 main@_bb_0) (not main@%_1_0))
                (=> main@orig.main.exit_0 (= main@%_6_0 (= main@%len.0.i_0 5)))
                (=> main@orig.main.exit_0 (= main@%_7_0 (ite main@%_6_0 1 0)))
                (=> main@orig.main.exit_0 (not main@%_8_0))
                (=> main@precall_0 (and main@precall_0 main@orig.main.exit_0))
                (=> main@__VERIFIER_assert_0
                    (and main@__VERIFIER_assert_0 main@precall_0))
                (=> main@__VERIFIER_assert_0 (= main@%_9_0 (= main@%_7_0 0)))
                (=> main@__VERIFIER_assert_0 main@%_9_0)
                (=> main@_bb2_0 (and main@_bb2_0 main@__VERIFIER_assert_0))
                (=> main@verifier.error_0
                    (and main@verifier.error_0 main@_bb2_0))
                (=> main@verifier.error.split_0
                    (and main@verifier.error.split_0 main@verifier.error_0))
                main@verifier.error.split_0)))
  (=> a!1 main@verifier.error.split)))
(query main@verifier.error.split)

